NAME          
ROWS
 N  OBJ
 L  c1
 L  c2
 L  c3
 L  c4
COLUMNS
    MARKER    'MARKER'                 'INTORG'
    x[1]      c1        71
    x[1]      c2        367
    x[1]      c3        26
    x[1]      c4        171
    x[1]      OBJ       -60
    x[2]      c1        727
    x[2]      c2        680
    x[2]      c3        528
    x[2]      c4        51
    x[2]      OBJ       -56
    x[3]      c1        159
    x[3]      c2        922
    x[3]      c3        294
    x[3]      c4        654
    x[3]      OBJ       -922
    x[4]      c1        278
    x[4]      c2        67
    x[4]      c3        98
    x[4]      c4        737
    x[4]      OBJ       -625
    x[5]      c1        174
    x[5]      c2        580
    x[5]      c3        375
    x[5]      c4        192
    x[5]      OBJ       -384
    x[6]      c1        770
    x[6]      c2        617
    x[6]      c3        79
    x[6]      c4        120
    x[6]      OBJ       -9
    x[7]      c1        563
    x[7]      c2        361
    x[7]      c3        282
    x[7]      c4        251
    x[7]      OBJ       -276
    x[8]      c1        280
    x[8]      c2        935
    x[8]      c3        384
    x[8]      c4        900
    x[8]      OBJ       -494
    x[9]      c1        921
    x[9]      c2        776
    x[9]      c3        381
    x[9]      c4        261
    x[9]      OBJ       -290
    x[10]     c1        499
    x[10]     c2        927
    x[10]     c3        589
    x[10]     c4        553
    x[10]     OBJ       -411
    x[11]     c1        791
    x[11]     c2        830
    x[11]     c3        745
    x[11]     c4        684
    x[11]     OBJ       -466
    x[12]     c1        90
    x[12]     c2        956
    x[12]     c3        423
    x[12]     c4        411
    x[12]     OBJ       -782
    x[13]     c1        545
    x[13]     c2        642
    x[13]     c3        36
    x[13]     c4        636
    x[13]     OBJ       -8
    x[14]     c1        831
    x[14]     c2        63
    x[14]     c3        804
    x[14]     c4        53
    x[14]     OBJ       -84
    x[15]     c1        539
    x[15]     c2        778
    x[15]     c3        358
    x[15]     c4        476
    x[15]     OBJ       -178
RHS
    rhs       c1        3619
    rhs       c2        4750
    rhs       c3        2701
    rhs       c4        3075
RANGES
BOUNDS
 BV bounds    x[1]
 BV bounds    x[2]
 BV bounds    x[3]
 BV bounds    x[4]
 BV bounds    x[5]
 BV bounds    x[6]
 BV bounds    x[7]
 BV bounds    x[8]
 BV bounds    x[9]
 BV bounds    x[10]
 BV bounds    x[11]
 BV bounds    x[12]
 BV bounds    x[13]
 BV bounds    x[14]
 BV bounds    x[15]
ENDATA
